p wcnf 18 33 1
1 1 2 0
1 3 4 0
1 5 6 0
1 7 8 0
1 9 10 0
1 11 12 0
1 -1 -3 -6 0
1 -7 -9 -12 0
1 -2 -3 -6 0
1 -8 -9 -12 0
1 -1 -3 -5 0
1 -7 -9 -11 0
1 2 -13 0
1 4 -13 0
1 6 -13 0
1 8 -14 0
1 10 -14 0
1 12 -14 0
1 2 -15 0
1 4 -15 0
1 5 -15 0
1 8 -16 0
1 10 -16 0
1 11 -16 0
1 1 -17 0
1 4 -17 0
1 6 -17 0
1 7 -18 0
1 10 -18 0
1 12 -18 0
1 13 14 0
1 15 16 0
1 17 18 0
